c colouring generated by benchmark framework
p edge 500 12458
v 1 11
v 2 6
v 3 2
v 4 12
v 5 9
v 6 3
v 7 15
v 8 13
v 9 3
v 10 13
v 11 6
v 12 3
v 13 0
v 14 0
v 15 2
v 16 2
v 17 13
v 18 2
v 19 6
v 20 2
v 21 4
v 22 0
v 23 2
v 24 15
v 25 11
v 26 4
v 27 7
v 28 4
v 29 10
v 30 8
v 31 8
v 32 15
v 33 4
v 34 10
v 35 12
v 36 2
v 37 10
v 38 1
v 39 0
v 40 3
v 41 13
v 42 2
v 43 6
v 44 14
v 45 1
v 46 5
v 47 1
v 48 13
v 49 16
v 50 3
v 51 4
v 52 6
v 53 14
v 54 8
v 55 12
v 56 0
v 57 7
v 58 3
v 59 0
v 60 11
v 61 6
v 62 14
v 63 0
v 64 12
v 65 12
v 66 16
v 67 1
v 68 7
v 69 5
v 70 9
v 71 14
v 72 2
v 73 6
v 74 7
v 75 0
v 76 6
v 77 4
v 78 0
v 79 7
v 80 7
v 81 4
v 82 1
v 83 10
v 84 16
v 85 8
v 86 11
v 87 12
v 88 8
v 89 2
v 90 2
v 91 9
v 92 5
v 93 10
v 94 3
v 95 12
v 96 2
v 97 1
v 98 0
v 99 3
v 100 14
v 101 3
v 102 0
v 103 2
v 104 12
v 105 5
v 106 6
v 107 9
v 108 7
v 109 0
v 110 10
v 111 8
v 112 10
v 113 11
v 114 10
v 115 10
v 116 10
v 117 9
v 118 9
v 119 5
v 120 11
v 121 4
v 122 1
v 123 16
v 124 16
v 125 9
v 126 3
v 127 3
v 128 14
v 129 10
v 130 9
v 131 3
v 132 15
v 133 9
v 134 3
v 135 3
v 136 0
v 137 5
v 138 11
v 139 14
v 140 5
v 141 15
v 142 8
v 143 7
v 144 15
v 145 6
v 146 11
v 147 11
v 148 11
v 149 4
v 150 5
v 151 7
v 152 6
v 153 5
v 154 8
v 155 16
v 156 1
v 157 4
v 158 3
v 159 3
v 160 9
v 161 0
v 162 15
v 163 6
v 164 15
v 165 1
v 166 7
v 167 8
v 168 7
v 169 9
v 170 5
v 171 4
v 172 12
v 173 10
v 174 13
v 175 11
v 176 4
v 177 0
v 178 16
v 179 0
v 180 11
v 181 4
v 182 11
v 183 5
v 184 6
v 185 13
v 186 6
v 187 14
v 188 1
v 189 15
v 190 6
v 191 6
v 192 16
v 193 1
v 194 5
v 195 2
v 196 5
v 197 2
v 198 2
v 199 10
v 200 1
v 201 0
v 202 10
v 203 1
v 204 11
v 205 4
v 206 11
v 207 1
v 208 15
v 209 11
v 210 13
v 211 0
v 212 7
v 213 6
v 214 2
v 215 12
v 216 10
v 217 12
v 218 7
v 219 0
v 220 1
v 221 13
v 222 4
v 223 8
v 224 14
v 225 12
v 226 10
v 227 1
v 228 9
v 229 13
v 230 3
v 231 9
v 232 6
v 233 16
v 234 5
v 235 6
v 236 4
v 237 4
v 238 0
v 239 2
v 240 15
v 241 15
v 242 2
v 243 2
v 244 16
v 245 1
v 246 3
v 247 4
v 248 5
v 249 16
v 250 8
v 251 6
v 252 14
v 253 3
v 254 5
v 255 1
v 256 4
v 257 6
v 258 3
v 259 12
v 260 8
v 261 11
v 262 15
v 263 13
v 264 8
v 265 0
v 266 8
v 267 12
v 268 7
v 269 6
v 270 16
v 271 12
v 272 11
v 273 14
v 274 15
v 275 10
v 276 13
v 277 8
v 278 13
v 279 9
v 280 11
v 281 3
v 282 15
v 283 3
v 284 15
v 285 9
v 286 8
v 287 1
v 288 1
v 289 10
v 290 9
v 291 9
v 292 14
v 293 8
v 294 7
v 295 10
v 296 14
v 297 13
v 298 8
v 299 12
v 300 15
v 301 14
v 302 14
v 303 11
v 304 9
v 305 2
v 306 1
v 307 8
v 308 7
v 309 0
v 310 1
v 311 6
v 312 2
v 313 2
v 314 8
v 315 5
v 316 11
v 317 7
v 318 12
v 319 1
v 320 5
v 321 12
v 322 9
v 323 4
v 324 5
v 325 6
v 326 8
v 327 13
v 328 3
v 329 5
v 330 3
v 331 10
v 332 4
v 333 7
v 334 8
v 335 13
v 336 1
v 337 3
v 338 10
v 339 2
v 340 1
v 341 13
v 342 6
v 343 2
v 344 10
v 345 7
v 346 11
v 347 12
v 348 5
v 349 0
v 350 13
v 351 2
v 352 9
v 353 6
v 354 5
v 355 1
v 356 7
v 357 12
v 358 14
v 359 13
v 360 6
v 361 16
v 362 7
v 363 11
v 364 13
v 365 8
v 366 6
v 367 5
v 368 0
v 369 1
v 370 5
v 371 2
v 372 8
v 373 0
v 374 16
v 375 8
v 376 1
v 377 16
v 378 6
v 379 11
v 380 5
v 381 2
v 382 3
v 383 13
v 384 6
v 385 14
v 386 14
v 387 13
v 388 4
v 389 6
v 390 10
v 391 1
v 392 7
v 393 2
v 394 4
v 395 5
v 396 9
v 397 9
v 398 14
v 399 9
v 400 0
v 401 8
v 402 2
v 403 13
v 404 13
v 405 10
v 406 5
v 407 2
v 408 5
v 409 11
v 410 0
v 411 2
v 412 1
v 413 1
v 414 5
v 415 2
v 416 4
v 417 2
v 418 2
v 419 9
v 420 0
v 421 6
v 422 15
v 423 7
v 424 8
v 425 15
v 426 16
v 427 1
v 428 12
v 429 11
v 430 9
v 431 11
v 432 2
v 433 4
v 434 4
v 435 16
v 436 0
v 437 13
v 438 12
v 439 8
v 440 14
v 441 7
v 442 12
v 443 16
v 444 11
v 445 15
v 446 5
v 447 15
v 448 7
v 449 9
v 450 2
v 451 7
v 452 6
v 453 0
v 454 2
v 455 0
v 456 12
v 457 7
v 458 5
v 459 13
v 460 1
v 461 11
v 462 9
v 463 14
v 464 11
v 465 5
v 466 16
v 467 5
v 468 15
v 469 10
v 470 14
v 471 7
v 472 12
v 473 0
v 474 4
v 475 3
v 476 11
v 477 1
v 478 14
v 479 15
v 480 0
v 481 14
v 482 0
v 483 8
v 484 12
v 485 3
v 486 14
v 487 4
v 488 10
v 489 4
v 490 12
v 491 8
v 492 5
v 493 9
v 494 7
v 495 11
v 496 12
v 497 9
v 498 9
v 499 5
v 500 15
